Version identifier: 22.1.0.0 | 2022-03-09 | 1a383f8ce
CPXPARAM_Read_DataCheck                          1
Tried aggregator 4 times.
MIP Presolve eliminated 41020 rows and 4971 columns.
MIP Presolve modified 616 coefficients.
Aggregator did 37185 substitutions.
Reduced MIP has 5221 rows, 38120 columns, and 81518 nonzeros.
Reduced MIP has 38092 binaries, 28 generals, 0 SOSs, and 0 indicators.
Presolve time = 0.41 sec. (430.51 ticks)
Tried aggregator 1 time.
Detecting symmetries...
Reduced MIP has 5221 rows, 38120 columns, and 81518 nonzeros.
Reduced MIP has 38092 binaries, 28 generals, 0 SOSs, and 0 indicators.
Presolve time = 0.06 sec. (59.49 ticks)
Probing fixed 45 vars, tightened 0 bounds.
Probing time = 0.17 sec. (22.34 ticks)
Clique table members: 77393.
MIP emphasis: balance optimality and feasibility.
MIP search method: dynamic search.
Parallel mode: deterministic, using up to 8 threads.
Root relaxation solution time = 0.46 sec. (317.30 ticks)

        Nodes                                         Cuts/
   Node  Left     Objective  IInf  Best Integer    Best Bound    ItCnt     Gap

      0     0       28.4278  4089                     28.4278     4817         
      0     0       47.0000   586                    Cuts: 48    13849         
*     0+    0                           52.0000       47.0000             9.62%
      0     0       47.0000   670       52.0000      Cuts: 56    19918    9.62%
      0     0       47.0000   413       52.0000   ZeroHalf: 2    21686    9.62%
      0     0       47.0000   619       52.0000  ZeroHalf: 37    26798    9.62%
Heuristic still looking.
*     0+    0                           51.0000       47.0000             7.84%
      0     0  -1.00000e+75     0       51.0000       47.0000    26798    7.84%
      0     2       47.0000   321       51.0000       47.0000    26798    7.84%
Elapsed time = 124.08 sec. (52036.13 ticks, tree = 0.02 MB, solutions = 2)
      1     3       47.0000   303       51.0000       47.0000    34287    7.84%
      2     4       47.0000   362       51.0000       47.0000    38679    7.84%
      4     5       47.0000   367       51.0000       47.0000    42268    7.84%
      5     7       47.0000   353       51.0000       47.0000    48759    7.84%
      6     6       47.0000   356       51.0000       47.0000    49819    7.84%
      7     4       47.0000   298       51.0000       47.0000    38569    7.84%
      9    11       47.0000   388       51.0000       47.0000    65838    7.84%
     11    12       47.0000   597       51.0000       47.0000    70881    7.84%
     13     7       47.0000   344       51.0000       47.0000    51237    7.84%
     19    14       47.0000   416       51.0000       47.0000    72591    7.84%
Elapsed time = 152.14 sec. (65862.37 ticks, tree = 0.09 MB, solutions = 2)
     28    18       47.1000   806       51.0000       47.0000   100812    7.84%
     34    21       47.1769   715       51.0000       47.0000   103967    7.84%
     56    38       47.0000   232       51.0000       47.0000   183486    7.84%
     73    39       47.1333   613       51.0000       47.0000   221095    7.84%
     88    44       47.0000   419       51.0000       47.0000   249755    7.84%
    109    69       47.0000   354       51.0000       47.0000   347217    7.84%
    131    95       47.4000    96       51.0000       47.0000   459109    7.84%
    160    96       47.0000   285       51.0000       47.0000   544257    7.84%
    183   144       47.0000   184       51.0000       47.0000   638414    7.84%
Version identifier: 22.1.0.0 | 2022-03-09 | 1a383f8ce
CPXPARAM_Read_DataCheck                          1
Tried aggregator 4 times.
MIP Presolve eliminated 41020 rows and 4971 columns.
MIP Presolve modified 616 coefficients.
Aggregator did 37185 substitutions.
Reduced MIP has 5221 rows, 38120 columns, and 81518 nonzeros.
Reduced MIP has 38092 binaries, 28 generals, 0 SOSs, and 0 indicators.
Presolve time = 0.41 sec. (430.51 ticks)
Tried aggregator 1 time.
Detecting symmetries...
Reduced MIP has 5221 rows, 38120 columns, and 81518 nonzeros.
Reduced MIP has 38092 binaries, 28 generals, 0 SOSs, and 0 indicators.
Presolve time = 0.06 sec. (59.49 ticks)
Probing fixed 45 vars, tightened 0 bounds.
Probing time = 0.19 sec. (22.34 ticks)
Clique table members: 77393.
MIP emphasis: balance optimality and feasibility.
MIP search method: dynamic search.
Parallel mode: deterministic, using up to 8 threads.
Root relaxation solution time = 0.54 sec. (317.30 ticks)

        Nodes                                         Cuts/
   Node  Left     Objective  IInf  Best Integer    Best Bound    ItCnt     Gap

      0     0       28.4278  4089                     28.4278     4817         
      0     0       47.0000   586                    Cuts: 48    13849         
*     0+    0                           52.0000       47.0000             9.62%
      0     0       47.0000   670       52.0000      Cuts: 56    19918    9.62%
      0     0       47.0000   413       52.0000   ZeroHalf: 2    21686    9.62%
      0     0       47.0000   619       52.0000  ZeroHalf: 37    26798    9.62%
Heuristic still looking.
*     0+    0                           51.0000       47.0000             7.84%
      0     0  -1.00000e+75     0       51.0000       47.0000    26798    7.84%
      0     2       47.0000   321       51.0000       47.0000    26798    7.84%
Elapsed time = 124.61 sec. (52036.13 ticks, tree = 0.02 MB, solutions = 2)
      1     3       47.0000   303       51.0000       47.0000    34287    7.84%
      2     4       47.0000   362       51.0000       47.0000    38679    7.84%
      4     5       47.0000   367       51.0000       47.0000    42268    7.84%
      5     7       47.0000   353       51.0000       47.0000    48759    7.84%
      6     6       47.0000   356       51.0000       47.0000    49819    7.84%
      7     4       47.0000   298       51.0000       47.0000    38569    7.84%
      9    11       47.0000   388       51.0000       47.0000    65838    7.84%
     11    12       47.0000   597       51.0000       47.0000    70881    7.84%
     13     7       47.0000   344       51.0000       47.0000    51237    7.84%
     19    14       47.0000   416       51.0000       47.0000    72591    7.84%
Elapsed time = 152.85 sec. (65862.37 ticks, tree = 0.09 MB, solutions = 2)
     28    18       47.1000   806       51.0000       47.0000   100812    7.84%
     34    21       47.1769   715       51.0000       47.0000   103967    7.84%
     56    38       47.0000   232       51.0000       47.0000   183486    7.84%
     73    39       47.1333   613       51.0000       47.0000   221095    7.84%
     88    44       47.0000   419       51.0000       47.0000   249755    7.84%
    109    69       47.0000   354       51.0000       47.0000   347217    7.84%
    131    95       47.4000    96       51.0000       47.0000   459109    7.84%
    160    96       47.0000   285       51.0000       47.0000   544257    7.84%
    183   144       47.0000   184       51.0000       47.0000   638414    7.84%
*   212   141      integral     0       47.0000       47.0000   652701    0.00%
    213   148       47.0000   212       47.0000       47.0000   642066    0.00%
Elapsed time = 194.68 sec. (75996.94 ticks, tree = 1.86 MB, solutions = 3)
    232   188       48.4375   195       47.0000       47.0000   674600    0.00%
    256   176       47.0000   192       47.0000       47.0000   667743    0.00%

Zero-half cuts applied:  67
Lift and project cuts applied:  5
Gomory fractional cuts applied:  19

Root node processing (before b&c):
  Real time             =  124.46 sec. (51979.42 ticks)
Parallel b&c, 8 threads:
  Real time             =   71.77 sec. (27209.28 ticks)
  Sync time (average)   =   23.84 sec.
  Wait time (average)   =    0.00 sec.
                          ------------
Total (root+branch&cut) =  196.23 sec. (79188.70 ticks)
